p cnf 30 74
1 2 0
3 4 0
5 6 0
7 8 0
9 10 0
11 -5 0
12 -6 0
13 -7 0
14 -8 0
1 -15 0
1 -16 0
1 -17 0
1 -18 0
1 -19 0
1 -20 0
1 -21 0
1 -22 0
2 -23 0
2 -24 0
2 -25 0
2 -26 0
2 -27 0
2 -28 0
2 -29 0
2 -30 0
3 -19 0
3 -27 0
4 -20 0
4 -28 0
5 -15 0
5 -17 0
5 -23 0
5 -25 0
5 -11 0
6 -16 0
6 -18 0
6 -24 0
6 -26 0
6 -12 0
7 -15 0
7 -16 0
7 -23 0
7 -24 0
7 -13 0
8 -17 0
8 -18 0
8 -25 0
8 -26 0
8 -14 0
9 -21 0
9 -29 0
10 -22 0
10 -30 0
-1 -2 0
-3 -4 0
-5 -6 0
-7 -8 0
-9 -10 0
19 -1 -3 0
27 -2 -3 0
20 -1 -4 0
28 -2 -4 0
21 -1 -9 0
29 -2 -9 0
22 -1 -10 0
30 -2 -10 0
15 -1 -5 -7 0
16 -1 -6 -7 0
17 -1 -5 -8 0
18 -1 -6 -8 0
23 -2 -5 -7 0
24 -2 -6 -7 0
25 -2 -5 -8 0
26 -2 -6 -8 0